cluster_editing/exact/simple_reductions/graphs/exact059.gr.metis
121 2174
2 5 10 13 20 21 22 23 24 25 31 32 33 34 35 36 43 44 46 48 49 50 52 55 63 64 66 67 68 71 72 73 74 75 78 80 82 83 85 86 89 90 93 94 95 103 105 109 110 114 118 119 120 
1 4 12 16 19 26 38 47 52 53 61 63 65 81 83 84 88 91 100 102 105 108 111 118 
5 14 21 23 24 25 32 34 43 44 50 56 57 70 75 80 85 86 94 96 114 119 120 121 
2 12 16 19 26 45 47 51 52 61 63 65 81 83 84 88 91 100 102 105 108 118 
1 3 9 10 14 17 18 20 21 22 25 27 31 32 34 35 36 37 43 45 47 48 50 51 56 57 59 60 61 67 68 70 71 73 74 75 81 85 86 88 89 92 93 94 96 98 100 105 113 114 118 119 120 121 
21 35 36 43 59 64 72 93 98 119 
8 18 20 25 31 34 35 48 50 67 71 73 85 93 96 99 109 114 119 
7 18 20 25 34 35 48 67 71 73 85 93 96 99 109 114 
5 18 22 24 27 31 32 36 49 57 68 72 80 86 96 
1 5 11 13 14 18 20 21 22 23 24 25 27 29 31 32 33 34 35 36 37 40 43 44 45 46 48 49 50 51 54 55 56 58 59 64 66 67 68 70 71 72 73 74 75 77 78 80 82 84 85 86 89 90 93 94 95 96 98 103 107 109 110 113 114 119 120 121 
10 13 23 34 35 36 41 43 49 66 67 71 72 73 74 77 78 79 82 90 93 95 101 103 109 110 114 117 119 120 
2 4 16 19 26 38 47 52 53 61 63 65 81 83 88 91 100 102 105 108 118 
1 10 11 14 15 18 21 23 24 25 27 29 31 32 33 34 35 36 39 43 44 45 47 48 49 50 52 55 56 59 64 67 68 70 71 72 73 74 75 77 78 80 81 82 84 85 86 87 88 89 90 93 95 96 98 99 100 102 103 106 107 109 110 112 113 114 117 118 119 120 121 
3 5 10 13 20 23 24 25 27 28 31 32 34 35 36 37 43 44 48 49 50 55 56 60 64 67 68 70 71 72 73 75 78 80 82 85 86 92 93 95 96 109 114 115 119 120 
13 23 24 25 34 35 36 39 43 44 49 50 67 72 73 78 82 95 106 109 114 120 
2 4 12 19 26 38 43 47 51 52 53 61 63 65 81 83 84 88 91 100 102 105 108 111 118 120 
5 18 24 31 32 48 50 68 70 71 96 113 120 
5 7 8 9 10 13 17 20 22 24 27 31 32 34 35 36 43 48 49 50 51 56 57 60 61 67 68 71 72 73 74 75 78 82 85 86 92 93 95 96 109 113 114 118 119 120 
2 4 12 16 26 37 45 47 52 53 61 63 65 81 83 88 91 100 102 105 108 118 
1 5 7 8 10 14 18 21 22 24 27 31 32 34 36 43 48 49 50 51 56 60 61 67 68 71 72 73 74 75 85 86 89 92 93 94 96 99 105 109 119 120 
1 3 5 6 10 13 20 23 24 25 32 33 34 35 36 43 49 50 56 59 64 67 72 73 74 75 78 80 82 85 86 89 93 95 98 109 114 118 119 120 
1 5 9 10 18 20 27 31 32 34 35 36 43 49 50 55 57 60 68 71 72 74 86 89 92 93 96 114 115 120 
1 3 10 11 13 14 15 21 24 25 28 31 32 33 34 35 36 39 43 44 49 50 64 67 70 71 72 73 74 75 78 80 82 85 86 89 93 95 106 109 114 115 119 120 121 
1 3 9 10 13 14 15 17 18 20 21 23 25 27 28 29 31 32 33 34 35 36 37 43 44 45 48 49 50 52 55 56 59 63 64 67 68 70 71 72 73 74 75 78 80 82 84 85 86 89 90 93 95 96 98 106 107 109 110 113 114 119 120 121 
1 3 5 7 8 10 13 14 15 21 23 24 31 32 33 34 35 36 39 43 44 49 50 55 56 59 64 67 68 70 71 72 73 74 75 78 80 82 84 85 86 89 93 94 95 98 106 107 109 114 118 119 120 121 
2 4 12 16 19 38 47 52 53 61 63 81 83 88 91 100 102 105 108 118 
5 9 10 13 14 18 20 22 24 28 31 32 34 35 36 43 46 48 49 50 55 57 58 60 68 71 72 74 78 82 86 92 93 95 96 115 119 120 121 
14 23 24 27 31 32 36 46 49 55 58 68 72 86 96 109 114 115 120 
10 13 24 33 34 35 36 43 49 50 56 71 72 78 82 86 93 95 109 114 119 
62 69 84 104 
1 5 7 9 10 13 14 17 18 20 22 23 24 25 27 28 32 34 35 36 37 43 45 46 48 49 50 55 56 57 60 65 67 68 70 71 72 73 74 75 78 82 84 85 86 89 92 93 94 95 96 105 109 114 115 119 120 
1 3 5 9 10 13 14 17 18 20 21 22 23 24 25 27 28 31 33 34 35 36 37 39 43 44 45 46 48 49 50 51 55 56 57 59 60 64 67 68 70 71 72 73 74 75 78 80 82 84 85 86 89 92 93 94 95 96 98 109 113 114 115 119 120 121 
1 10 13 21 23 24 25 29 32 34 35 36 37 43 45 48 49 50 52 55 56 59 61 64 67 71 72 73 74 75 78 80 82 84 85 86 89 90 93 94 95 96 98 109 113 114 119 120 121 
1 3 5 7 8 10 11 13 14 15 18 20 21 22 23 24 25 27 29 31 32 33 35 36 37 43 45 46 48 49 50 51 55 56 59 61 64 67 68 70 71 72 73 74 75 77 78 80 82 84 85 86 87 89 90 93 94 95 96 98 103 107 109 110 112 113 114 119 120 121 
1 5 6 7 8 10 11 13 14 15 18 21 22 23 24 25 27 29 31 32 33 34 36 37 39 43 44 48 49 50 56 59 64 67 68 70 71 72 73 74 75 77 78 80 82 84 85 86 89 90 93 94 95 96 98 102 103 107 109 110 113 114 119 120 121 
1 5 6 9 10 11 13 14 15 18 20 21 22 23 24 25 27 28 29 31 32 33 34 35 37 39 41 43 44 45 48 49 50 52 55 56 57 59 61 63 64 66 67 68 70 71 72 73 74 75 77 78 80 81 82 83 84 85 86 88 89 90 93 94 95 96 98 100 102 103 105 107 109 110 112 113 114 115 118 119 120 121 
5 10 14 19 24 31 32 33 34 35 36 38 43 45 49 51 52 53 56 61 68 75 81 84 85 86 87 88 93 94 96 100 102 105 108 109 111 118 119 120 
2 12 16 26 37 45 47 52 63 81 83 88 94 100 102 105 111 118 
13 15 23 25 32 35 36 44 49 50 67 71 72 73 74 75 78 82 85 86 95 106 109 114 119 120 
10 43 54 74 93 120 
11 36 66 77 90 101 103 110 120 
76 97 116 
1 3 5 6 10 11 13 14 15 16 18 20 21 22 23 24 25 27 29 31 32 33 34 35 36 37 40 44 45 46 48 49 50 51 54 55 56 58 59 61 64 67 68 70 71 72 73 74 75 78 80 82 84 85 86 89 90 93 94 95 96 98 103 107 109 110 113 114 119 120 121 
1 3 10 13 14 15 23 24 25 32 35 36 39 43 50 67 70 72 73 78 82 86 89 93 95 105 106 109 114 119 120 121 
4 5 10 13 19 24 31 32 33 34 36 37 38 43 49 51 52 56 61 70 74 75 78 82 84 86 87 93 94 102 105 111 118 119 121 
1 10 27 28 31 32 34 43 55 58 68 74 93 109 114 115 120 
2 4 5 12 13 16 19 26 38 52 53 61 63 65 78 81 82 83 84 88 91 100 102 105 108 111 118 
1 5 7 8 10 13 14 17 18 20 24 27 31 32 33 34 35 36 43 49 50 56 59 64 67 68 70 71 72 73 74 75 78 80 82 85 86 89 93 95 96 98 99 114 119 120 121 
1 9 10 11 13 14 15 18 20 21 22 23 24 25 27 28 29 31 32 33 34 35 36 37 39 43 45 48 50 52 55 56 59 61 64 66 67 68 70 71 72 73 74 75 77 78 80 82 84 85 86 89 90 93 94 95 96 98 102 103 107 109 110 114 115 118 119 120 121 
1 3 5 7 10 13 14 15 17 18 20 21 22 23 24 25 27 29 31 32 33 34 35 36 39 43 44 48 49 52 55 56 59 63 64 66 67 68 70 71 72 73 74 75 78 80 82 84 85 86 89 90 93 95 96 98 103 106 107 109 110 111 113 114 115 119 120 121 
4 5 10 16 18 20 32 34 37 43 45 60 70 75 81 84 86 87 88 91 92 93 94 100 105 120 
1 2 4 12 13 16 19 24 26 33 36 37 38 45 47 49 50 53 61 63 65 72 78 81 82 83 84 88 91 95 100 102 104 105 108 118 
2 12 16 19 26 37 47 52 61 63 81 83 88 91 100 102 105 108 118 
10 40 43 74 93 107 120 
1 10 13 14 22 24 25 27 28 31 32 33 34 36 43 46 49 50 58 68 72 74 78 82 89 93 95 96 109 114 115 119 120 
3 5 10 13 14 18 20 21 24 25 29 31 32 33 34 35 36 37 43 45 48 49 50 57 59 60 64 67 70 71 72 73 74 75 78 80 82 84 85 86 92 93 95 96 98 109 113 114 119 120 121 
3 5 9 18 22 27 31 32 36 56 68 70 75 86 96 121 
10 27 28 43 46 55 74 86 93 109 115 
5 6 10 13 21 24 25 32 33 34 35 36 43 48 49 50 56 60 64 67 71 72 73 74 75 78 80 82 85 86 92 93 95 98 109 114 115 119 
5 14 18 20 22 27 31 32 51 56 59 61 68 75 85 86 92 94 96 98 113 120 
2 4 5 12 16 18 19 20 26 33 34 36 37 43 45 47 49 52 53 60 63 65 67 73 81 83 84 88 91 92 93 94 100 102 105 108 113 118 119 120 
30 69 84 87 104 111 
1 2 4 12 16 19 24 26 36 38 47 50 52 53 61 65 81 83 86 88 89 91 100 102 105 108 118 119 120 
1 6 10 13 14 21 23 24 25 32 33 34 35 36 43 48 49 50 56 59 67 70 71 72 73 74 75 78 80 82 85 86 89 93 95 96 98 107 109 114 119 120 121 
2 4 12 16 19 31 47 52 61 63 81 83 84 88 91 100 102 105 108 118 
1 10 11 36 41 49 50 67 71 73 77 89 90 103 110 120 
1 5 7 8 10 11 13 14 15 18 20 21 23 24 25 31 32 33 34 35 36 39 43 44 48 49 50 56 59 61 64 66 68 70 71 72 73 74 75 77 78 80 82 83 85 86 89 90 93 95 96 98 103 106 107 109 110 113 114 119 120 121 
1 5 9 10 13 14 17 18 20 22 24 25 27 28 31 32 34 35 36 37 43 46 48 49 50 55 57 60 67 70 71 72 73 74 75 78 82 84 86 89 92 93 94 95 96 109 113 114 115 119 120 121 
30 62 84 87 104 111 
3 5 10 13 14 17 23 24 25 31 32 34 35 36 43 44 45 48 49 50 51 56 57 64 67 68 71 72 73 75 78 80 82 84 85 86 93 95 96 106 109 113 114 119 120 121 
1 5 7 8 10 11 13 14 17 18 20 22 23 24 25 27 29 31 32 33 34 35 36 39 43 48 49 50 56 59 64 66 67 68 70 72 73 74 75 77 78 80 82 85 86 89 90 93 94 95 96 98 99 103 107 109 110 113 114 119 120 121 
1 6 9 10 11 13 14 15 18 20 21 22 23 24 25 27 28 29 31 32 33 34 35 36 39 43 44 48 49 50 52 55 56 59 64 67 68 70 71 73 74 75 77 78 80 82 84 85 86 89 90 93 95 96 98 103 106 107 109 110 113 114 115 119 120 121 
1 5 7 8 10 11 13 14 15 18 20 21 23 24 25 31 32 33 34 35 36 39 43 44 48 49 50 56 59 61 64 66 67 68 70 71 72 74 75 77 78 80 82 83 85 86 89 90 93 95 96 98 103 106 107 109 110 113 114 119 120 121 
1 5 10 11 13 18 20 21 22 23 24 25 27 31 32 33 34 35 36 39 40 43 45 46 48 49 50 54 55 56 58 59 64 67 68 71 72 73 75 78 80 82 85 86 89 90 93 94 95 96 98 107 109 110 113 114 115 118 119 120 121 
1 3 5 10 13 14 18 20 21 23 24 25 31 32 33 34 35 36 37 39 43 45 48 49 50 51 56 57 59 60 64 67 68 70 71 72 73 74 77 78 80 82 84 85 86 89 92 93 94 95 96 98 106 109 113 114 119 120 121 
42 97 116 
10 11 13 34 35 36 41 49 66 67 71 72 73 75 78 79 86 90 93 95 103 109 110 114 117 119 120 
1 10 11 13 14 15 18 21 23 24 25 27 29 31 32 33 34 35 36 39 43 44 45 47 48 49 50 52 55 56 59 64 67 68 70 71 72 73 74 75 77 80 81 82 84 85 86 87 88 89 90 93 95 96 98 99 100 102 103 106 107 109 110 112 113 114 117 118 119 120 121 
11 77 90 103 110 112 117 
1 3 9 10 13 14 21 23 24 25 32 33 34 35 36 43 48 49 50 56 59 64 67 70 71 72 73 74 75 78 82 85 86 89 93 95 96 98 109 119 120 121 
2 4 5 12 13 16 19 26 36 37 38 47 51 52 53 61 63 65 78 82 83 84 88 91 95 100 102 105 108 111 118 
1 10 11 13 14 15 18 21 23 24 25 27 29 31 32 33 34 35 36 39 43 44 45 47 48 49 50 52 55 56 59 64 67 68 70 71 72 73 74 75 78 80 81 84 85 86 88 89 90 93 95 96 98 99 100 103 106 107 109 110 112 113 114 118 119 120 121 
1 2 4 12 16 19 26 36 38 47 52 53 61 63 65 67 73 81 86 88 89 91 100 102 105 108 118 120 
2 4 10 13 16 24 25 30 31 32 33 34 35 36 37 43 45 47 49 50 51 52 56 61 62 65 68 69 70 72 75 78 81 82 85 86 87 88 91 94 95 100 105 109 111 114 118 119 120 121 
1 3 5 7 8 10 13 14 18 20 21 23 24 25 31 32 33 34 35 36 37 39 43 48 49 50 56 59 60 64 67 70 71 72 73 74 75 78 80 82 84 86 89 90 92 93 94 95 96 98 107 109 114 119 120 121 
1 3 5 9 10 13 14 18 20 21 22 23 24 25 27 28 29 31 32 33 34 35 36 37 39 43 44 45 48 49 50 51 56 57 58 59 60 63 64 67 68 70 71 72 73 74 75 77 78 80 82 83 84 85 89 92 93 94 95 96 98 103 106 107 109 110 113 114 119 120 121 
13 34 37 45 51 62 69 78 84 94 96 105 108 111 
2 4 5 12 13 16 19 26 36 37 38 47 51 52 53 61 63 65 78 81 82 83 84 91 95 100 102 105 108 111 118 
1 5 10 13 20 21 22 23 24 25 31 32 33 34 35 36 43 44 48 49 50 55 63 64 66 67 68 71 72 73 74 75 78 80 82 83 85 86 90 93 94 95 103 105 109 110 114 118 119 120 
1 10 11 13 24 33 34 35 36 41 43 49 50 66 67 71 72 73 74 77 78 79 82 85 89 93 95 101 103 109 110 112 117 119 120 
2 4 12 16 19 26 47 51 52 53 61 63 65 81 83 84 88 100 102 105 108 118 
5 14 18 20 22 27 31 32 51 56 59 60 61 68 75 85 86 94 96 98 113 120 
1 5 6 7 8 10 11 13 14 18 20 21 22 23 24 25 27 29 31 32 33 34 35 36 37 40 43 44 45 46 48 49 50 51 54 55 56 58 59 61 64 67 68 70 71 72 73 74 75 77 78 80 82 85 86 89 90 94 95 96 98 103 107 109 110 113 114 119 120 121 
1 3 5 10 20 25 31 32 33 34 35 36 37 38 43 45 49 51 60 61 68 71 74 75 84 85 86 87 89 92 93 102 103 105 110 111 118 119 120 
1 10 11 13 14 15 18 21 23 24 25 27 29 31 32 33 34 35 36 39 43 44 48 49 50 52 55 56 59 64 67 68 70 71 72 73 74 75 77 78 80 81 82 84 85 86 88 89 90 93 96 98 100 102 103 106 107 109 110 112 113 114 118 119 120 121 
3 5 7 8 9 10 13 14 17 18 20 22 24 27 28 31 32 33 34 35 36 37 43 48 49 50 55 56 57 60 64 67 68 70 71 72 73 74 75 78 80 82 85 86 87 92 93 95 105 113 115 119 120 121 
42 76 116 
5 6 10 13 21 24 25 32 33 34 35 36 43 48 49 50 56 59 60 64 67 71 72 73 74 75 78 80 82 85 86 92 93 95 109 114 115 119 
7 8 13 20 48 71 78 82 
2 4 5 12 13 16 19 26 36 37 38 47 51 52 53 61 63 65 78 81 82 83 84 88 91 95 102 105 108 111 118 
11 41 90 103 110 
2 4 12 13 16 19 26 35 36 37 38 45 47 49 52 53 61 63 65 78 81 83 88 91 94 95 100 105 108 111 114 118 120 
1 10 11 13 34 35 36 41 43 49 50 66 67 71 72 73 77 78 79 82 86 89 90 93 94 95 101 109 110 114 117 119 120 
30 52 62 69 105 111 118 
1 2 4 5 12 16 19 20 26 31 36 37 38 44 45 47 51 52 53 61 63 65 81 83 84 87 88 89 91 94 96 100 102 104 108 111 118 119 
13 15 23 24 25 39 44 50 67 70 72 73 75 78 82 86 95 109 114 120 121 
10 13 24 25 34 35 36 43 49 50 54 64 67 71 72 73 74 78 82 85 86 93 95 109 114 119 120 
2 4 12 16 19 26 37 47 52 53 61 63 65 81 83 87 88 91 100 102 105 118 
1 7 8 10 11 13 14 15 18 20 21 23 24 25 28 29 31 32 33 34 35 36 37 39 43 44 46 49 50 55 56 58 59 64 67 68 70 71 72 73 74 75 77 78 80 82 84 85 86 89 90 93 95 98 103 106 107 110 114 115 119 120 121 
1 10 11 13 24 34 35 36 41 43 49 50 66 67 71 72 73 74 77 78 79 82 86 89 90 93 94 95 101 103 109 112 114 117 119 120 
2 16 37 38 45 47 50 62 69 81 84 87 88 94 100 102 104 105 114 118 
13 34 36 78 79 82 90 95 110 119 
5 10 13 17 18 24 32 33 34 35 36 43 50 56 60 61 67 68 70 71 72 73 74 75 78 82 86 92 93 95 96 119 120 
1 3 5 7 8 10 11 13 14 15 18 21 22 23 24 25 28 29 31 32 33 34 35 36 39 43 44 46 48 49 50 55 56 59 64 67 68 70 71 72 73 74 75 77 78 82 84 85 86 89 93 95 98 102 103 106 107 109 110 111 115 118 119 120 121 
14 22 23 27 28 31 32 36 46 49 50 55 58 59 68 72 74 96 98 109 114 120 
42 76 97 118 
11 13 77 78 79 90 103 110 
1 2 4 5 12 13 16 18 19 21 25 26 36 37 38 45 47 49 52 53 61 63 65 74 78 81 82 83 84 88 89 91 94 95 100 102 104 105 108 111 114 116 119 120 121 
1 3 5 6 7 10 11 13 14 18 20 21 23 24 25 27 29 31 32 33 34 35 36 37 39 43 44 45 48 49 50 55 56 59 61 63 64 67 68 70 71 72 73 74 75 77 78 80 82 84 85 86 89 90 93 94 95 96 98 103 105 107 109 110 112 113 114 118 120 121 
1 3 5 10 11 13 14 15 16 17 18 20 21 22 23 24 25 27 28 31 32 33 34 35 36 37 39 40 41 43 44 46 48 49 50 51 54 55 56 60 61 63 64 66 67 68 70 71 72 73 74 75 77 78 80 82 83 84 85 86 89 90 92 93 94 95 96 102 103 106 107 109 110 113 114 115 118 119 121 
3 5 10 13 23 24 25 27 32 33 34 35 36 43 44 45 48 49 50 56 57 64 67 68 70 71 72 73 74 75 78 80 82 84 85 86 93 95 96 106 109 114 118 119 120 
