instances/exact/exact059.gr
p cep 121 2174
1 2
1 5
1 10
1 13
1 20
1 21
1 22
1 23
1 24
1 25
1 31
1 32
1 33
1 34
1 35
1 36
1 43
1 44
1 46
1 48
1 49
1 50
1 52
1 55
1 63
1 64
1 66
1 67
1 68
1 71
1 72
1 73
1 74
1 75
1 78
1 80
1 82
1 83
1 85
1 86
1 89
1 90
1 93
1 94
1 95
1 103
1 105
1 109
1 110
1 114
1 118
1 119
1 120
2 4
2 12
2 16
2 19
2 26
2 38
2 47
2 52
2 53
2 61
2 63
2 65
2 81
2 83
2 84
2 88
2 91
2 100
2 102
2 105
2 108
2 111
2 118
3 5
3 14
3 21
3 23
3 24
3 25
3 32
3 34
3 43
3 44
3 50
3 56
3 57
3 70
3 75
3 80
3 85
3 86
3 94
3 96
3 114
3 119
3 120
3 121
4 12
4 16
4 19
4 26
4 45
4 47
4 51
4 52
4 61
4 63
4 65
4 81
4 83
4 84
4 88
4 91
4 100
4 102
4 105
4 108
4 118
5 9
5 10
5 14
5 17
5 18
5 20
5 21
5 22
5 25
5 27
5 31
5 32
5 34
5 35
5 36
5 37
5 43
5 45
5 47
5 48
5 50
5 51
5 56
5 57
5 59
5 60
5 61
5 67
5 68
5 70
5 71
5 73
5 74
5 75
5 81
5 85
5 86
5 88
5 89
5 92
5 93
5 94
5 96
5 98
5 100
5 105
5 113
5 114
5 118
5 119
5 120
5 121
6 21
6 35
6 36
6 43
6 59
6 64
6 72
6 93
6 98
6 119
7 8
7 18
7 20
7 25
7 31
7 34
7 35
7 48
7 50
7 67
7 71
7 73
7 85
7 93
7 96
7 99
7 109
7 114
7 119
8 18
8 20
8 25
8 34
8 35
8 48
8 67
8 71
8 73
8 85
8 93
8 96
8 99
8 109
8 114
9 18
9 22
9 24
9 27
9 31
9 32
9 36
9 49
9 57
9 68
9 72
9 80
9 86
9 96
10 11
10 13
10 14
10 18
10 20
10 21
10 22
10 23
10 24
10 25
10 27
10 29
10 31
10 32
10 33
10 34
10 35
10 36
10 37
10 40
10 43
10 44
10 45
10 46
10 48
10 49
10 50
10 51
10 54
10 55
10 56
10 58
10 59
10 64
10 66
10 67
10 68
10 70
10 71
10 72
10 73
10 74
10 75
10 77
10 78
10 80
10 82
10 84
10 85
10 86
10 89
10 90
10 93
10 94
10 95
10 96
10 98
10 103
10 107
10 109
10 110
10 113
10 114
10 119
10 120
10 121
11 13
11 23
11 34
11 35
11 36
11 41
11 43
11 49
11 66
11 67
11 71
11 72
11 73
11 74
11 77
11 78
11 79
11 82
11 90
11 93
11 95
11 101
11 103
11 109
11 110
11 114
11 117
11 119
11 120
12 16
12 19
12 26
12 38
12 47
12 52
12 53
12 61
12 63
12 65
12 81
12 83
12 88
12 91
12 100
12 102
12 105
12 108
12 118
13 14
13 15
13 18
13 21
13 23
13 24
13 25
13 27
13 29
13 31
13 32
13 33
13 34
13 35
13 36
13 39
13 43
13 44
13 45
13 47
13 48
13 49
13 50
13 52
13 55
13 56
13 59
13 64
13 67
13 68
13 70
13 71
13 72
13 73
13 74
13 75
13 77
13 78
13 80
13 81
13 82
13 84
13 85
13 86
13 87
13 88
13 89
13 90
13 93
13 95
13 96
13 98
13 99
13 100
13 102
13 103
13 106
13 107
13 109
13 110
13 112
13 113
13 114
13 117
13 118
13 119
13 120
13 121
14 20
14 23
14 24
14 25
14 27
14 28
14 31
14 32
14 34
14 35
14 36
14 37
14 43
14 44
14 48
14 49
14 50
14 55
14 56
14 60
14 64
14 67
14 68
14 70
14 71
14 72
14 73
14 75
14 78
14 80
14 82
14 85
14 86
14 92
14 93
14 95
14 96
14 109
14 114
14 115
14 119
14 120
15 23
15 24
15 25
15 34
15 35
15 36
15 39
15 43
15 44
15 49
15 50
15 67
15 72
15 73
15 78
15 82
15 95
15 106
15 109
15 114
15 120
16 19
16 26
16 38
16 43
16 47
16 51
16 52
16 53
16 61
16 63
16 65
16 81
16 83
16 84
16 88
16 91
16 100
16 102
16 105
16 108
16 111
16 118
16 120
17 18
17 24
17 31
17 32
17 48
17 50
17 68
17 70
17 71
17 96
17 113
17 120
18 20
18 22
18 24
18 27
18 31
18 32
18 34
18 35
18 36
18 43
18 48
18 49
18 50
18 51
18 56
18 57
18 60
18 61
18 67
18 68
18 71
18 72
18 73
18 74
18 75
18 78
18 82
18 85
18 86
18 92
18 93
18 95
18 96
18 109
18 113
18 114
18 118
18 119
18 120
19 26
19 37
19 45
19 47
19 52
19 53
19 61
19 63
19 65
19 81
19 83
19 88
19 91
19 100
19 102
19 105
19 108
19 118
20 21
20 22
20 24
20 27
20 31
20 32
20 34
20 36
20 43
20 48
20 49
20 50
20 51
20 56
20 60
20 61
20 67
20 68
20 71
20 72
20 73
20 74
20 75
20 85
20 86
20 89
20 92
20 93
20 94
20 96
20 99
20 105
20 109
20 119
20 120
21 23
21 24
21 25
21 32
21 33
21 34
21 35
21 36
21 43
21 49
21 50
21 56
21 59
21 64
21 67
21 72
21 73
21 74
21 75
21 78
21 80
21 82
21 85
21 86
21 89
21 93
21 95
21 98
21 109
21 114
21 118
21 119
21 120
22 27
22 31
22 32
22 34
22 35
22 36
22 43
22 49
22 50
22 55
22 57
22 60
22 68
22 71
22 72
22 74
22 86
22 89
22 92
22 93
22 96
22 114
22 115
22 120
23 24
23 25
23 28
23 31
23 32
23 33
23 34
23 35
23 36
23 39
23 43
23 44
23 49
23 50
23 64
23 67
23 70
23 71
23 72
23 73
23 74
23 75
23 78
23 80
23 82
23 85
23 86
23 89
23 93
23 95
23 106
23 109
23 114
23 115
23 119
23 120
23 121
24 25
24 27
24 28
24 29
24 31
24 32
24 33
24 34
24 35
24 36
24 37
24 43
24 44
24 45
24 48
24 49
24 50
24 52
24 55
24 56
24 59
24 63
24 64
24 67
24 68
24 70
24 71
24 72
24 73
24 74
24 75
24 78
24 80
24 82
24 84
24 85
24 86
24 89
24 90
24 93
24 95
24 96
24 98
24 106
24 107
24 109
24 110
24 113
24 114
24 119
24 120
24 121
25 31
25 32
25 33
25 34
25 35
25 36
25 39
25 43
25 44
25 49
25 50
25 55
25 56
25 59
25 64
25 67
25 68
25 70
25 71
25 72
25 73
25 74
25 75
25 78
25 80
25 82
25 84
25 85
25 86
25 89
25 93
25 94
25 95
25 98
25 106
25 107
25 109
25 114
25 118
25 119
25 120
25 121
26 38
26 47
26 52
26 53
26 61
26 63
26 81
26 83
26 88
26 91
26 100
26 102
26 105
26 108
26 118
27 28
27 31
27 32
27 34
27 35
27 36
27 43
27 46
27 48
27 49
27 50
27 55
27 57
27 58
27 60
27 68
27 71
27 72
27 74
27 78
27 82
27 86
27 92
27 93
27 95
27 96
27 115
27 119
27 120
27 121
28 31
28 32
28 36
28 46
28 49
28 55
28 58
28 68
28 72
28 86
28 96
28 109
28 114
28 115
28 120
29 33
29 34
29 35
29 36
29 43
29 49
29 50
29 56
29 71
29 72
29 78
29 82
29 86
29 93
29 95
29 109
29 114
29 119
30 62
30 69
30 84
30 104
31 32
31 34
31 35
31 36
31 37
31 43
31 45
31 46
31 48
31 49
31 50
31 55
31 56
31 57
31 60
31 65
31 67
31 68
31 70
31 71
31 72
31 73
31 74
31 75
31 78
31 82
31 84
31 85
31 86
31 89
31 92
31 93
31 94
31 95
31 96
31 105
31 109
31 114
31 115
31 119
31 120
32 33
32 34
32 35
32 36
32 37
32 39
32 43
32 44
32 45
32 46
32 48
32 49
32 50
32 51
32 55
32 56
32 57
32 59
32 60
32 64
32 67
32 68
32 70
32 71
32 72
32 73
32 74
32 75
32 78
32 80
32 82
32 84
32 85
32 86
32 89
32 92
32 93
32 94
32 95
32 96
32 98
32 109
32 113
32 114
32 115
32 119
32 120
32 121
33 34
33 35
33 36
33 37
33 43
33 45
33 48
33 49
33 50
33 52
33 55
33 56
33 59
33 61
33 64
33 67
33 71
33 72
33 73
33 74
33 75
33 78
33 80
33 82
33 84
33 85
33 86
33 89
33 90
33 93
33 94
33 95
33 96
33 98
33 109
33 113
33 114
33 119
33 120
33 121
34 35
34 36
34 37
34 43
34 45
34 46
34 48
34 49
34 50
34 51
34 55
34 56
34 59
34 61
34 64
34 67
34 68
34 70
34 71
34 72
34 73
34 74
34 75
34 77
34 78
34 80
34 82
34 84
34 85
34 86
34 87
34 89
34 90
34 93
34 94
34 95
34 96
34 98
34 103
34 107
34 109
34 110
34 112
34 113
34 114
34 119
34 120
34 121
35 36
35 37
35 39
35 43
35 44
35 48
35 49
35 50
35 56
35 59
35 64
35 67
35 68
35 70
35 71
35 72
35 73
35 74
35 75
35 77
35 78
35 80
35 82
35 84
35 85
35 86
35 89
35 90
35 93
35 94
35 95
35 96
35 98
35 102
35 103
35 107
35 109
35 110
35 113
35 114
35 119
35 120
35 121
36 37
36 39
36 41
36 43
36 44
36 45
36 48
36 49
36 50
36 52
36 55
36 56
36 57
36 59
36 61
36 63
36 64
36 66
36 67
36 68
36 70
36 71
36 72
36 73
36 74
36 75
36 77
36 78
36 80
36 81
36 82
36 83
36 84
36 85
36 86
36 88
36 89
36 90
36 93
36 94
36 95
36 96
36 98
36 100
36 102
36 103
36 105
36 107
36 109
36 110
36 112
36 113
36 114
36 115
36 118
36 119
36 120
36 121
37 38
37 43
37 45
37 49
37 51
37 52
37 53
37 56
37 61
37 68
37 75
37 81
37 84
37 85
37 86
37 87
37 88
37 93
37 94
37 96
37 100
37 102
37 105
37 108
37 109
37 111
37 118
37 119
37 120
38 45
38 47
38 52
38 63
38 81
38 83
38 88
38 94
38 100
38 102
38 105
38 111
38 118
39 44
39 49
39 50
39 67
39 71
39 72
39 73
39 74
39 75
39 78
39 82
39 85
39 86
39 95
39 106
39 109
39 114
39 119
39 120
40 43
40 54
40 74
40 93
40 120
41 66
41 77
41 90
41 101
41 103
41 110
41 120
42 76
42 97
42 116
43 44
43 45
43 46
43 48
43 49
43 50
43 51
43 54
43 55
43 56
43 58
43 59
43 61
43 64
43 67
43 68
43 70
43 71
43 72
43 73
43 74
43 75
43 78
43 80
43 82
43 84
43 85
43 86
43 89
43 90
43 93
43 94
43 95
43 96
43 98
43 103
43 107
43 109
43 110
43 113
43 114
43 119
43 120
43 121
44 50
44 67
44 70
44 72
44 73
44 78
44 82
44 86
44 89
44 93
44 95
44 105
44 106
44 109
44 114
44 119
44 120
44 121
45 49
45 51
45 52
45 56
45 61
45 70
45 74
45 75
45 78
45 82
45 84
45 86
45 87
45 93
45 94
45 102
45 105
45 111
45 118
45 119
45 121
46 55
46 58
46 68
46 74
46 93
46 109
46 114
46 115
46 120
47 52
47 53
47 61
47 63
47 65
47 78
47 81
47 82
47 83
47 84
47 88
47 91
47 100
47 102
47 105
47 108
47 111
47 118
48 49
48 50
48 56
48 59
48 64
48 67
48 68
48 70
48 71
48 72
48 73
48 74
48 75
48 78
48 80
48 82
48 85
48 86
48 89
48 93
48 95
48 96
48 98
48 99
48 114
48 119
48 120
48 121
49 50
49 52
49 55
49 56
49 59
49 61
49 64
49 66
49 67
49 68
49 70
49 71
49 72
49 73
49 74
49 75
49 77
49 78
49 80
49 82
49 84
49 85
49 86
49 89
49 90
49 93
49 94
49 95
49 96
49 98
49 102
49 103
49 107
49 109
49 110
49 114
49 115
49 118
49 119
49 120
49 121
50 52
50 55
50 56
50 59
50 63
50 64
50 66
50 67
50 68
50 70
50 71
50 72
50 73
50 74
50 75
50 78
50 80
50 82
50 84
50 85
50 86
50 89
50 90
50 93
50 95
50 96
50 98
50 103
50 106
50 107
50 109
50 110
50 111
50 113
50 114
50 115
50 119
50 120
50 121
51 60
51 70
51 75
51 81
51 84
51 86
51 87
51 88
51 91
51 92
51 93
51 94
51 100
51 105
51 120
52 53
52 61
52 63
52 65
52 72
52 78
52 81
52 82
52 83
52 84
52 88
52 91
52 95
52 100
52 102
52 104
52 105
52 108
52 118
53 61
53 63
53 81
53 83
53 88
53 91
53 100
53 102
53 105
53 108
53 118
54 74
54 93
54 107
54 120
55 58
55 68
55 72
55 74
55 78
55 82
55 89
55 93
55 95
55 96
55 109
55 114
55 115
55 119
55 120
56 57
56 59
56 60
56 64
56 67
56 70
56 71
56 72
56 73
56 74
56 75
56 78
56 80
56 82
56 84
56 85
56 86
56 92
56 93
56 95
56 96
56 98
56 109
56 113
56 114
56 119
56 120
56 121
57 68
57 70
57 75
57 86
57 96
57 121
58 74
58 86
58 93
58 109
58 115
59 60
59 64
59 67
59 71
59 72
59 73
59 74
59 75
59 78
59 80
59 82
59 85
59 86
59 92
59 93
59 95
59 98
59 109
59 114
59 115
59 119
60 61
60 68
60 75
60 85
60 86
60 92
60 94
60 96
60 98
60 113
60 120
61 63
61 65
61 67
61 73
61 81
61 83
61 84
61 88
61 91
61 92
61 93
61 94
61 100
61 102
61 105
61 108
61 113
61 118
61 119
61 120
62 69
62 84
62 87
62 104
62 111
63 65
63 81
63 83
63 86
63 88
63 89
63 91
63 100
63 102
63 105
63 108
63 118
63 119
63 120
64 67
64 70
64 71
64 72
64 73
64 74
64 75
64 78
64 80
64 82
64 85
64 86
64 89
64 93
64 95
64 96
64 98
64 107
64 109
64 114
64 119
64 120
64 121
65 81
65 83
65 84
65 88
65 91
65 100
65 102
65 105
65 108
65 118
66 67
66 71
66 73
66 77
66 89
66 90
66 103
66 110
66 120
67 68
67 70
67 71
67 72
67 73
67 74
67 75
67 77
67 78
67 80
67 82
67 83
67 85
67 86
67 89
67 90
67 93
67 95
67 96
67 98
67 103
67 106
67 107
67 109
67 110
67 113
67 114
67 119
67 120
67 121
68 70
68 71
68 72
68 73
68 74
68 75
68 78
68 82
68 84
68 86
68 89
68 92
68 93
68 94
68 95
68 96
68 109
68 113
68 114
68 115
68 119
68 120
68 121
69 84
69 87
69 104
69 111
70 71
70 72
70 73
70 75
70 78
70 80
70 82
70 84
70 85
70 86
70 93
70 95
70 96
70 106
70 109
70 113
70 114
70 119
70 120
70 121
71 72
71 73
71 74
71 75
71 77
71 78
71 80
71 82
71 85
71 86
71 89
71 90
71 93
71 94
71 95
71 96
71 98
71 99
71 103
71 107
71 109
71 110
71 113
71 114
71 119
71 120
71 121
72 73
72 74
72 75
72 77
72 78
72 80
72 82
72 84
72 85
72 86
72 89
72 90
72 93
72 95
72 96
72 98
72 103
72 106
72 107
72 109
72 110
72 113
72 114
72 115
72 119
72 120
72 121
73 74
73 75
73 77
73 78
73 80
73 82
73 83
73 85
73 86
73 89
73 90
73 93
73 95
73 96
73 98
73 103
73 106
73 107
73 109
73 110
73 113
73 114
73 119
73 120
73 121
74 75
74 78
74 80
74 82
74 85
74 86
74 89
74 90
74 93
74 94
74 95
74 96
74 98
74 107
74 109
74 110
74 113
74 114
74 115
74 118
74 119
74 120
74 121
75 77
75 78
75 80
75 82
75 84
75 85
75 86
75 89
75 92
75 93
75 94
75 95
75 96
75 98
75 106
75 109
75 113
75 114
75 119
75 120
75 121
76 97
76 116
77 78
77 79
77 86
77 90
77 93
77 95
77 103
77 109
77 110
77 114
77 117
77 119
77 120
78 80
78 81
78 82
78 84
78 85
78 86
78 87
78 88
78 89
78 90
78 93
78 95
78 96
78 98
78 99
78 100
78 102
78 103
78 106
78 107
78 109
78 110
78 112
78 113
78 114
78 117
78 118
78 119
78 120
78 121
79 90
79 103
79 110
79 112
79 117
80 82
80 85
80 86
80 89
80 93
80 95
80 96
80 98
80 109
80 119
80 120
80 121
81 82
81 83
81 84
81 88
81 91
81 95
81 100
81 102
81 105
81 108
81 111
81 118
82 84
82 85
82 86
82 88
82 89
82 90
82 93
82 95
82 96
82 98
82 99
82 100
82 103
82 106
82 107
82 109
82 110
82 112
82 113
82 114
82 118
82 119
82 120
82 121
83 86
83 88
83 89
83 91
83 100
83 102
83 105
83 108
83 118
83 120
84 85
84 86
84 87
84 88
84 91
84 94
84 95
84 100
84 105
84 109
84 111
84 114
84 118
84 119
84 120
84 121
85 86
85 89
85 90
85 92
85 93
85 94
85 95
85 96
85 98
85 107
85 109
85 114
85 119
85 120
85 121
86 89
86 92
86 93
86 94
86 95
86 96
86 98
86 103
86 106
86 107
86 109
86 110
86 113
86 114
86 119
86 120
86 121
87 94
87 96
87 105
87 108
87 111
88 91
88 95
88 100
88 102
88 105
88 108
88 111
88 118
89 90
89 93
89 94
89 95
89 103
89 105
89 109
89 110
89 114
89 118
89 119
89 120
90 93
90 95
90 101
90 103
90 109
90 110
90 112
90 117
90 119
90 120
91 100
91 102
91 105
91 108
91 118
92 94
92 96
92 98
92 113
92 120
93 94
93 95
93 96
93 98
93 103
93 107
93 109
93 110
93 113
93 114
93 119
93 120
93 121
94 102
94 103
94 105
94 110
94 111
94 118
94 119
94 120
95 96
95 98
95 100
95 102
95 103
95 106
95 107
95 109
95 110
95 112
95 113
95 114
95 118
95 119
95 120
95 121
96 105
96 113
96 115
96 119
96 120
96 121
97 116
98 109
98 114
98 115
98 119
100 102
100 105
100 108
100 111
100 118
101 103
101 110
102 105
102 108
102 111
102 114
102 118
102 120
103 109
103 110
103 114
103 117
103 119
103 120
104 105
104 111
104 118
105 108
105 111
105 118
105 119
106 109
106 114
106 120
106 121
107 109
107 114
107 119
107 120
108 118
109 110
109 114
109 115
109 119
109 120
109 121
110 112
110 114
110 117
110 119
110 120
111 114
111 118
112 119
113 119
113 120
114 115
114 118
114 119
114 120
114 121
115 120
116 118
118 119
118 120
118 121
119 120
119 121
120 121
